sat
(
  (define-fun ProcProv5 () Int
    4)
  (define-fun C3_VM9 () Int
    0)
  (define-fun C4_VM12 () Int
    0)
  (define-fun C1_VM12 () Int
    1)
  (define-fun StorageProv11 () Int
    2000)
  (define-fun MemProv12 () Int
    3750)
  (define-fun StorageProv2 () Int
    2000)
  (define-fun StorageProv9 () Int
    2000)
  (define-fun C4_VM3 () Int
    0)
  (define-fun C2_VM2 () Int
    1)
  (define-fun C1_VM8 () Int
    1)
  (define-fun MemProv5 () Int
    7500)
  (define-fun PriceProv9 () Int
    116)
  (define-fun C5_VM2 () Int
    0)
  (define-fun PriceProv7 () Int
    210)
  (define-fun MemProv2 () Int
    3750)
  (define-fun ProcProv8 () Int
    2)
  (define-fun ProcProv2 () Int
    2)
  (define-fun PriceProv5 () Int
    210)
  (define-fun PriceProv4 () Int
    210)
  (define-fun StorageProv10 () Int
    2000)
  (define-fun StorageProv5 () Int
    2000)
  (define-fun PriceProv12 () Int
    116)
  (define-fun VM5Type () Int
    341)
  (define-fun C2_VM5 () Int
    0)
  (define-fun C3_VM6 () Int
    0)
  (define-fun C1_VM10 () Int
    1)
  (define-fun C2_VM4 () Int
    0)
  (define-fun StorageProv8 () Int
    2000)
  (define-fun C1_VM7 () Int
    0)
  (define-fun C5_VM8 () Int
    0)
  (define-fun VM10Type () Int
    433)
  (define-fun C1_VM1 () Int
    0)
  (define-fun C5_VM7 () Int
    1)
  (define-fun C4_VM8 () Int
    0)
  (define-fun C5_VM1 () Int
    0)
  (define-fun ProcProv1 () Int
    2)
  (define-fun C3_VM7 () Int
    0)
  (define-fun VM11Type () Int
    433)
  (define-fun VM6Type () Int
    433)
  (define-fun C2_VM3 () Int
    1)
  (define-fun C3_VM11 () Int
    0)
  (define-fun C3_VM2 () Int
    0)
  (define-fun C5_VM9 () Int
    0)
  (define-fun C3_VM8 () Int
    0)
  (define-fun C4_VM2 () Int
    0)
  (define-fun C2_VM11 () Int
    0)
  (define-fun C3_VM10 () Int
    0)
  (define-fun C3_VM3 () Int
    0)
  (define-fun MemProv3 () Int
    3750)
  (define-fun C1_VM4 () Int
    0)
  (define-fun C1_VM6 () Int
    0)
  (define-fun MemProv6 () Int
    3750)
  (define-fun C2_VM8 () Int
    0)
  (define-fun ProcProv11 () Int
    2)
  (define-fun VM7Type () Int
    341)
  (define-fun PriceProv2 () Int
    116)
  (define-fun C2_VM9 () Int
    0)
  (define-fun C1_VM9 () Int
    1)
  (define-fun C2_VM12 () Int
    0)
  (define-fun PriceProv1 () Int
    116)
  (define-fun C4_VM11 () Int
    0)
  (define-fun PriceProv3 () Int
    116)
  (define-fun PriceProv10 () Int
    116)
  (define-fun MemProv8 () Int
    3750)
  (define-fun C4_VM5 () Int
    0)
  (define-fun ProcProv4 () Int
    4)
  (define-fun StorageProv4 () Int
    2000)
  (define-fun C1_VM11 () Int
    1)
  (define-fun StorageProv6 () Int
    2000)
  (define-fun ProcProv9 () Int
    2)
  (define-fun StorageProv1 () Int
    2000)
  (define-fun StorageProv7 () Int
    2000)
  (define-fun VM8Type () Int
    433)
  (define-fun C3_VM12 () Int
    0)
  (define-fun C2_VM7 () Int
    0)
  (define-fun ProcProv12 () Int
    2)
  (define-fun C4_VM7 () Int
    0)
  (define-fun VM1Type () Int
    433)
  (define-fun C1_VM2 () Int
    0)
  (define-fun C2_VM10 () Int
    0)
  (define-fun C5_VM3 () Int
    0)
  (define-fun MemProv4 () Int
    7500)
  (define-fun VM2Type () Int
    433)
  (define-fun C3_VM1 () Int
    0)
  (define-fun MemProv1 () Int
    3750)
  (define-fun VM12Type () Int
    433)
  (define-fun C2_VM1 () Int
    1)
  (define-fun MemProv10 () Int
    3750)
  (define-fun ProcProv3 () Int
    2)
  (define-fun C5_VM6 () Int
    0)
  (define-fun C4_VM6 () Int
    0)
  (define-fun VM9Type () Int
    433)
  (define-fun C3_VM5 () Int
    1)
  (define-fun C4_VM10 () Int
    0)
  (define-fun ProcProv7 () Int
    4)
  (define-fun ProcProv10 () Int
    2)
  (define-fun ProcProv6 () Int
    2)
  (define-fun C1_VM5 () Int
    0)
  (define-fun MemProv11 () Int
    3750)
  (define-fun MemProv9 () Int
    3750)
  (define-fun VM3Type () Int
    433)
  (define-fun PriceProv8 () Int
    116)
  (define-fun StorageProv12 () Int
    2000)
  (define-fun C5_VM10 () Int
    0)
  (define-fun C4_VM1 () Int
    0)
  (define-fun C5_VM12 () Int
    0)
  (define-fun C5_VM4 () Int
    1)
  (define-fun C4_VM4 () Int
    0)
  (define-fun PriceProv6 () Int
    116)
  (define-fun C2_VM6 () Int
    1)
  (define-fun C5_VM11 () Int
    0)
  (define-fun C5_VM5 () Int
    0)
  (define-fun C1_VM3 () Int
    0)
  (define-fun MemProv7 () Int
    7500)
  (define-fun VM4Type () Int
    341)
  (define-fun C3_VM4 () Int
    0)
  (define-fun StorageProv3 () Int
    2000)
  (define-fun C4_VM9 () Int
    0)
  (define-fun PriceProv11 () Int
    116)
)
(objectives
 ( 42)
 ((+ 0
   PriceProv1
   PriceProv2
   PriceProv3
   PriceProv4
   PriceProv5
   PriceProv6
   PriceProv7
   PriceProv8
   PriceProv9
   PriceProv10
   PriceProv11
   PriceProv12) 1674)
)
(:added-eqs                   2071507
 :arith-eq-adapter            634633
 :arith-bound-propagations-lp 805
 :arith-conflicts             60
 :arith-diseq                 1639756
 :arith-fixed-eqs             9870
 :arith-lower                 1798555
 :arith-make-feasible         386199
 :arith-max-columns           639
 :arith-max-rows              38
 :arith-upper                 1600409
 :binary-propagations         6428380
 :bv-bit2core                 21800
 :bv-dynamic-diseqs           2923801
 :bv-dynamic-eqs              11
 :bv->core-eq                 7020
 :conflicts                   6204
 :decisions                   1249795
 :del-clause                  3602894
 :final-checks                39
 :max-memory                  141.84
 :maxsat-cores                12
 :memory                      136.12
 :minimized-lits              4392
 :mk-bool-var                 1292881
 :mk-clause                   3610677
 :mk-clause-binary            29695
 :num-allocs                  24293150694.00
 :num-checks                  71
 :pb-conflicts                514
 :pb-predicates               7
 :pb-propagations             19186
 :pb-resolves                 9
 :propagations                8248479
 :restarts                    46
 :rlimit-count                82441464
 :time                        13.98
 :total-time                  14.01)
